********************************************************************************
Field Output Report, written Sat Jul 19 06:42:00 2003

Source 1
---------

   ODB: /tmp_mnt/nfs/server00/local/vol02/user5/mabhatti/WileyVol1/abaqus/Chap1/tower/tower.odb
   Step: "Apply load"
   Frame: Increment      1: Step Time =   2.2200E-16

Loc 1 : Integration point values from source 1

Output sorted by column "Element Label".

Field Output reported at integration points for Region(s) PART-1-1: solid < STEEL >

         Element             Int         S.Mises     S.Max. In-P     S.Min. In-P     S.Max. Prin     S.Min. Prin        S.Tresca      S.Pressure     S.Third Inv           S.S11
           Label              Pt          @Loc 1          @Loc 1          @Loc 1          @Loc 1          @Loc 1          @Loc 1          @Loc 1          @Loc 1          @Loc 1
---------------------------------------------------------------------------------------------------------------------------------------------------------------------------------
               1               1     109.725E-15    -109.725E-15              0.    -109.725E-15              0.              0.     36.5749E-15              0.    -109.725E-15
               2               1            100.           -100.              0.           -100.              0.              0.         33.3333           -100.           -100.
               3               1     157.048E-15     157.048E-15              0.     157.048E-15              0.     157.048E-15    -52.3492E-15              0.     157.048E-15
               4               1            100.           -100.              0.           -100.              0.              0.         33.3333           -100.           -100.
               5               1             50.             50.              0.             50.              0.             50.        -16.6667             50.             50.
               6               1         103.078        -103.078              0.        -103.078              0.              0.         34.3592        -103.078        -103.078
               7               1     60.1987E-15     60.1987E-15              0.     60.1987E-15              0.     60.1987E-15    -20.0662E-15              0.     60.1987E-15
               8               1         103.078        -103.078              0.        -103.078              0.              0.         34.3592        -103.078        -103.078
               9               1             50.            -50.              0.            -50.              0.              0.         16.6667            -50.            -50.
              10               1            100.           -100.              0.           -100.              0.              0.         33.3333           -100.           -100.
              11               1     86.2472E-15     86.2472E-15              0.     86.2472E-15              0.     86.2472E-15    -28.7491E-15              0.     86.2472E-15
              12               1            100.           -100.              0.           -100.              0.              0.         33.3333           -100.           -100.
              13               1            300.           -300.              0.           -300.              0.              0.            100.           -300.           -300.
              14               1          335.41         -335.41              0.         -335.41              0.              0.         111.803         -335.41         -335.41
              15               1          335.41         -335.41              0.         -335.41              0.              0.         111.803         -335.41         -335.41
              16               1         223.607        -223.607              0.        -223.607              0.              0.         74.5356        -223.607        -223.607
              17               1         223.607        -223.607              0.        -223.607              0.              0.         74.5356        -223.607        -223.607
              18               1            200.            200.              0.            200.              0.            200.        -66.6667            200.            200.
              19               1            200.            200.              0.            200.              0.            200.        -66.6667            200.            200.
              20               1            300.            300.              0.            300.              0.            300.           -100.            300.            300.
              21               1            200.            200.              0.            200.              0.            200.        -66.6667            200.            200.
              22               1            200.            200.              0.            200.              0.            200.        -66.6667            200.            200.
              23               1     174.796E-15    -174.796E-15              0.    -174.796E-15              0.              0.     58.2653E-15              0.    -174.796E-15
              24               1         111.803         111.803              0.         111.803              0.         111.803        -37.2678         111.803         111.803
              25               1             50.            -50.              0.            -50.              0.              0.         16.6667            -50.            -50.
              26               1     249.367E-15    -249.367E-15              0.    -249.367E-15              0.              0.     83.1222E-15              0.    -249.367E-15
              27               1             50.            -50.              0.            -50.              0.              0.         16.6667            -50.            -50.
              28               1         111.803         111.803              0.         111.803              0.         111.803        -37.2678         111.803         111.803
              29               1     166.089E-15     166.089E-15              0.     166.089E-15              0.     166.089E-15    -55.3629E-15              0.     166.089E-15


  Minimum                            60.1987E-15         -335.41              0.         -335.41              0.              0.           -100.         -335.41         -335.41
      At Element                               7              15              29              15              29              27              20              15              15
          Int Pt                               1               1               1               1               1               1               1               1               1

  Maximum                                 335.41            300.              0.            300.              0.            300.         111.803            300.            300.
      At Element                              15              20              29              20              29              20              15              20              20
          Int Pt                               1               1               1               1               1               1               1               1               1

           Total                      3.5478E+03        -800.582              0.        -800.582              0.     1.37361E+03         266.861        -800.582        -800.582


